2025-10-21 23:03:11,720 - INFO - 📌 第一个 epoch：默认所有模块使用 checkpoint
2025-10-21 23:03:31,572 - INFO - Epoch 1 completed in 19.871364 seconds
2025-10-21 23:06:47,469 - INFO - torch.cuda.max_memory_reserved() : 0.919921875
2025-10-21 23:07:07,983 - INFO - 
[🔁 拟合反向传播时间模型]
2025-10-21 23:07:07,983 - INFO - 总反向传播时间: 20.175662s
2025-10-21 23:07:07,983 - INFO - 拟合模型: backward_total ≈ 2 × (A + B) + b
2025-10-21 23:07:07,983 - INFO - A = 11.012813, B = 1.015778, b = 8.147070s
2025-10-21 23:07:08,031 - INFO - Set parameter LicenseID to value 2706656
2025-10-21 23:07:08,039 - INFO - Set parameter LogToConsole to value 1
2025-10-21 23:07:08,039 - INFO - Set parameter LogFile to value ""
2025-10-21 23:07:08,039 - INFO - Set parameter Threads to value 12
2025-10-21 23:07:08,039 - INFO - Set parameter TimeLimit to value 3600
2025-10-21 23:07:08,039 - INFO - Set parameter OptimalityTol to value 0.0001
2025-10-21 23:07:08,039 - INFO - Set parameter IntFeasTol to value 1e-05
2025-10-21 23:07:08,039 - INFO - Set parameter StartNodeLimit to value 10000000
2025-10-21 23:07:08,094 - INFO - Set parameter TimeLimit to value 3600
2025-10-21 23:07:08,094 - INFO - 
2025-10-21 23:07:08,094 - INFO - 
2025-10-21 23:07:08,094 - INFO - Restarting solve
2025-10-21 23:07:08,094 - INFO - 
2025-10-21 23:07:08,094 - INFO - 
2025-10-21 23:07:08,099 - INFO - Gurobi Optimizer version 12.0.3 build v12.0.3rc0 (linux64 - "Ubuntu 20.04.6 LTS")
2025-10-21 23:07:08,099 - INFO - 
2025-10-21 23:07:08,099 - INFO - CPU model: Intel(R) Xeon(R) Platinum 8260 CPU @ 2.40GHz, instruction set [SSE2|AVX|AVX2|AVX512]
2025-10-21 23:07:08,099 - INFO - Thread count: 48 physical cores, 96 logical processors, using up to 12 threads
2025-10-21 23:07:08,099 - INFO - 
2025-10-21 23:07:08,099 - INFO - Non-default parameters:
2025-10-21 23:07:08,099 - INFO - TimeLimit  3600
2025-10-21 23:07:08,099 - INFO - OptimalityTol  0.0001
2025-10-21 23:07:08,099 - INFO - StartNodeLimit  10000000
2025-10-21 23:07:08,099 - INFO - Threads  12
2025-10-21 23:07:08,099 - INFO - 
2025-10-21 23:07:08,099 - INFO - Optimize a model with 5603 rows, 3584 columns and 15200 nonzeros
2025-10-21 23:07:08,100 - INFO - Model fingerprint: 0xe73d3800
2025-10-21 23:07:08,100 - INFO - Variable types: 1024 continuous, 2560 integer (2560 binary)
2025-10-21 23:07:08,100 - INFO - Coefficient statistics:
2025-10-21 23:07:08,100 - INFO -   Matrix range     [1e+00, 6e+14]
2025-10-21 23:07:08,100 - INFO -   Objective range  [5e+04, 3e+05]
2025-10-21 23:07:08,100 - INFO -   Bounds range     [1e+00, 2e+15]
2025-10-21 23:07:08,100 - INFO -   RHS range        [1e+00, 2e+15]
2025-10-21 23:07:08,100 - INFO - Warning: Model contains large matrix coefficient range
2025-10-21 23:07:08,100 - INFO - Warning: Model contains large rhs
2025-10-21 23:07:08,100 - INFO - Warning: Model contains large bounds
2025-10-21 23:07:08,100 - INFO -          Consider reformulating model or setting NumericFocus parameter
2025-10-21 23:07:08,100 - INFO -          to avoid numerical issues.
2025-10-21 23:07:08,121 - INFO - Presolve removed 4305 rows and 1986 columns
2025-10-21 23:07:08,121 - INFO - Presolve time: 0.02s
2025-10-21 23:07:08,121 - INFO - Presolved: 1298 rows, 1598 columns, 4470 nonzeros
2025-10-21 23:07:08,123 - INFO - Variable types: 0 continuous, 1598 integer (1095 binary)
2025-10-21 23:07:08,133 - INFO - 
2025-10-21 23:07:08,133 - INFO - Root relaxation: objective 5.808158e+06, 445 iterations, 0.00 seconds (0.00 work units)
2025-10-21 23:07:08,143 - INFO - 
2025-10-21 23:07:08,143 - INFO -     Nodes    |    Current Node    |     Objective Bounds      |     Work
2025-10-21 23:07:08,143 - INFO -  Expl Unexpl |  Obj  Depth IntInf | Incumbent    BestBd   Gap | It/Node Time
2025-10-21 23:07:08,143 - INFO - 
2025-10-21 23:07:08,143 - INFO -      0     0 5808157.68    0    5          - 5808157.68      -     -    0s
2025-10-21 23:07:08,146 - INFO - H    0     0                    5852823.0000 5808157.68  0.76%     -    0s
2025-10-21 23:07:08,171 - INFO -      0     0 5810300.40    0   21 5852823.00 5810300.40  0.73%     -    0s
2025-10-21 23:07:08,190 - INFO -      0     0 5810300.40    0    8 5852823.00 5810300.40  0.73%     -    0s
2025-10-21 23:07:08,197 - INFO -      0     0     cutoff    0      5852823.00 5852823.00  0.00%     -    0s
2025-10-21 23:07:08,198 - INFO - 
2025-10-21 23:07:08,198 - INFO - Cutting planes:
2025-10-21 23:07:08,198 - INFO -   Cover: 3
2025-10-21 23:07:08,198 - INFO - 
2025-10-21 23:07:08,198 - INFO - Explored 1 nodes (879 simplex iterations) in 0.10 seconds (0.05 work units)
2025-10-21 23:07:08,198 - INFO - Thread count was 12 (of 96 available processors)
2025-10-21 23:07:08,198 - INFO - 
2025-10-21 23:07:08,198 - INFO - Solution count 2: 5.85282e+06 5.85282e+06 
2025-10-21 23:07:08,198 - INFO - 
2025-10-21 23:07:08,198 - INFO - Optimal solution found (tolerance 1.00e-04)
2025-10-21 23:07:08,198 - INFO - Best objective 5.852823000000e+06, best bound 5.852823000000e+06, gap 0.0000%
2025-10-21 23:07:08,210 - INFO - 规划前的显存GB：2.0
2025-10-21 23:07:08,210 - INFO - 规划后的显存GB：1.8573479652404785
2025-10-21 23:07:08,210 - INFO - ✅ 最优策略：[1, 1, 1, 1, 1, 1, 1, 1, 0, 1, 0, 0, 0, 0, 1, 1]
2025-10-21 23:07:08,210 - INFO - 📌 checkpoint 的欧氏长度:, []
2025-10-21 23:07:08,210 - INFO - 📌 checkpoint 的余弦长度:, [6, 18, 24, 30, 36]
2025-10-21 23:07:08,211 - INFO - 💾 最终显存峰值：%.2f MB % 2444.3057861328125
2025-10-21 23:07:08,223 - INFO - Epoch 2 completed in 20.753118 seconds
2025-10-21 23:07:08,223 - INFO - torch.cuda.max_memory_reserved() : 0.919921875
2025-10-21 23:07:25,369 - INFO - Epoch 3 completed in 17.145247 seconds
2025-10-21 23:07:25,369 - INFO - 
====================== [第1个 Epoch 收集统计数据] ======================
2025-10-21 23:07:25,370 - INFO - 
🔍 EUCLIDEAN modules:
2025-10-21 23:07:25,370 - INFO - [Shapelet   6] forward_avg=0.002141s over 92 calls | peak=121.01MB | final=0.00MB
2025-10-21 23:07:25,370 - INFO - [Shapelet  12] forward_avg=0.002467s over 92 calls | peak=164.59MB | final=0.00MB
2025-10-21 23:07:25,370 - INFO - [Shapelet  18] forward_avg=0.002811s over 92 calls | peak=202.52MB | final=0.00MB
2025-10-21 23:07:25,370 - INFO - [Shapelet  24] forward_avg=0.003029s over 92 calls | peak=233.25MB | final=0.00MB
2025-10-21 23:07:25,370 - INFO - [Shapelet  30] forward_avg=0.002960s over 92 calls | peak=247.82MB | final=0.00MB
2025-10-21 23:07:25,370 - INFO - [Shapelet  36] forward_avg=0.003226s over 92 calls | peak=247.36MB | final=0.00MB
2025-10-21 23:07:25,370 - INFO - [Shapelet  42] forward_avg=0.003257s over 92 calls | peak=232.68MB | final=0.00MB
2025-10-21 23:07:25,370 - INFO - [Shapelet  49] forward_avg=0.002032s over 92 calls | peak=202.64MB | final=0.00MB
2025-10-21 23:07:25,370 - INFO - 
🔍 COSINE modules:
2025-10-21 23:07:25,370 - INFO - [Shapelet   6] forward_avg=0.001969s over 92 calls | peak=81.68MB | final=0.00MB
2025-10-21 23:07:25,370 - INFO - [Shapelet  12] forward_avg=0.002099s over 92 calls | peak=100.70MB | final=0.00MB
2025-10-21 23:07:25,370 - INFO - [Shapelet  18] forward_avg=0.002246s over 92 calls | peak=117.07MB | final=0.00MB
2025-10-21 23:07:25,370 - INFO - [Shapelet  24] forward_avg=0.002179s over 92 calls | peak=134.74MB | final=0.00MB
2025-10-21 23:07:25,370 - INFO - [Shapelet  30] forward_avg=0.002469s over 92 calls | peak=141.93MB | final=0.00MB
2025-10-21 23:07:25,370 - INFO - [Shapelet  36] forward_avg=0.002598s over 92 calls | peak=139.35MB | final=0.00MB
2025-10-21 23:07:25,370 - INFO - [Shapelet  42] forward_avg=0.002526s over 92 calls | peak=125.51MB | final=0.00MB
2025-10-21 23:07:25,370 - INFO - [Shapelet  49] forward_avg=0.001892s over 92 calls | peak=106.17MB | final=0.00MB
2025-10-21 23:07:25,370 - INFO - 
🔍 CROSS modules:
2025-10-21 23:07:25,370 - INFO - [Shapelet   6] forward_avg=0.000485s over 92 calls
2025-10-21 23:07:25,370 - INFO - [Shapelet  12] forward_avg=0.000466s over 92 calls
2025-10-21 23:07:25,370 - INFO - [Shapelet  18] forward_avg=0.000547s over 92 calls
2025-10-21 23:07:25,370 - INFO - [Shapelet  24] forward_avg=0.000629s over 92 calls
2025-10-21 23:07:25,370 - INFO - [Shapelet  30] forward_avg=0.000708s over 92 calls
2025-10-21 23:07:25,370 - INFO - [Shapelet  36] forward_avg=0.000807s over 92 calls
2025-10-21 23:07:25,370 - INFO - [Shapelet  42] forward_avg=0.000882s over 92 calls
2025-10-21 23:07:25,370 - INFO - [Shapelet  49] forward_avg=0.000998s over 92 calls
2025-10-21 23:07:25,370 - INFO - 
💾 模型第一次反向传播阶段的显存峰值（所有模块中的最大值）: 2002.44 MB
2025-10-21 23:07:25,370 - INFO - 
💾 模型初始显存: 18.32 MB
2025-10-21 23:07:25,370 - INFO - =======================================================================

2025-10-21 23:07:25,371 - INFO - torch.cuda.max_memory_reserved() : 2.701171875
2025-10-21 23:07:42,451 - INFO - Epoch 4 completed in 17.080292 seconds
2025-10-21 23:07:42,452 - INFO - torch.cuda.max_memory_reserved() : 2.701171875
2025-10-21 23:07:59,490 - INFO - Epoch 5 completed in 17.037716 seconds
2025-10-21 23:07:59,490 - INFO - torch.cuda.max_memory_reserved() : 2.701171875
2025-10-21 23:08:16,140 - INFO - Epoch 6 completed in 16.649088 seconds
2025-10-21 23:08:16,141 - INFO - torch.cuda.max_memory_reserved() : 2.701171875
2025-10-21 23:08:32,562 - INFO - Epoch 7 completed in 16.420582 seconds
2025-10-21 23:08:32,562 - INFO - torch.cuda.max_memory_reserved() : 2.701171875
2025-10-21 23:08:49,011 - INFO - Epoch 8 completed in 16.448701 seconds
2025-10-21 23:08:49,012 - INFO - torch.cuda.max_memory_reserved() : 2.701171875
2025-10-21 23:09:05,683 - INFO - Epoch 9 completed in 16.671210 seconds
2025-10-21 23:09:05,684 - INFO - torch.cuda.max_memory_reserved() : 2.701171875
2025-10-21 23:09:22,922 - INFO - Epoch 10 completed in 17.237128 seconds
2025-10-21 23:12:53,768 - INFO - torch.cuda.max_memory_reserved() : 2.701171875
2025-10-21 23:12:53,769 - INFO - !!!采用策略后的几个epoch 平均时间:16.8362455368042
2025-10-21 23:12:53,769 - INFO - 



